349 367 
364 382
379 397
395 413
409 427
425 443
439 457
455 473
469 487
485 503
499 517
515 533
529 547
545 563
559 577
575 593
589 607
605 623
619 637
635 653
649 667
665 683
679 697
695 713
709 727
725 743
739 757
755 773
769 787
785 803
799 817
815 833
829 847
845 863
859 877
875 893
889 907
905 923
919 937
935 953
949 967
965 983
979 997
995 1013
1009 1027
1025 1043
1039 1057
1055 1073
1069 1087
1085 1103
1099 1117
1115 1133
1129 1147
1145 1163
1159 1177
1175 1193
1189 1207
1204 1222
1223 1241
1253 1271
1283 1301
1313 1331
1343 1361
1373 1391
1403 1421
1433 1451
1463 1481
1493 1511


